SCIP Status        : solving was interrupted [time limit reached]
Total Time         :    3600.00
  solving          :    3600.00
  presolving       :       0.15 (included in solving)
  reading          :       0.00
  copying          :       0.61 (35 #copies) (minimal 0.00, maximal 0.04, average 0.02)
Original Problem   :
  Problem name     : bbbenchmark/g05_60.7.cut
  Variables        : 61 (60 binary, 0 integer, 0 implicit integer, 1 continuous)
  Constraints      : 1 initial, 1 maximal
  Objective        : minimize, 1 non-zeros (abs.min = 1, abs.max = 1)
Presolved Problem  :
  Problem name     : t_bbbenchmark/g05_60.7.cut
  Variables        : 946 (60 binary, 0 integer, 885 implicit integer, 1 continuous)
  Constraints      : 886 initial, 7799 maximal
  Objective        : minimize, 1 non-zeros (abs.min = 1, abs.max = 1)
  Nonzeros         : 3601 constraint, 122 clique table
Presolvers         :   ExecTime  SetupTime  Calls  FixedVars   AggrVars   ChgTypes  ChgBounds   AddHoles    DelCons    AddCons   ChgSides   ChgCoefs
  boundshift       :       0.00       0.00      0          0          0          0          0          0          0          0          0          0
  convertinttobin  :       0.00       0.00      0          0          0          0          0          0          0          0          0          0
  domcol           :       0.00       0.00      1          0          0          0          0          0          0          0          0          0
  dualagg          :       0.00       0.00      0          0          0          0          0          0          0          0          0          0
  dualcomp         :       0.00       0.00      1          0          0          0          0          0          0          0          0          0
  dualinfer        :       0.00       0.00      0          0          0          0          0          0          0          0          0          0
  dualsparsify     :       0.00       0.00      1          0          0          0          0          0          0          0          0          0
  gateextraction   :       0.00       0.00      0          0          0          0          0          0          0          0          0          0
  implics          :       0.00       0.00      2          0          0          0          0          0          0          0          0          0
  inttobinary      :       0.00       0.00      0          0          0          0          0          0          0          0          0          0
  qpkktref         :       0.00       0.00      0          0          0          0          0          0          0          0          0          0
  redvub           :       0.00       0.00      0          0          0          0          0          0          0          0          0          0
  sparsify         :       0.00       0.00      1          0          0          0          0          0          0          0          0          0
  stuffing         :       0.00       0.00      0          0          0          0          0          0          0          0          0          0
  trivial          :       0.00       0.00      4          0          0          0          0          0          0          0          0          0
  tworowbnd        :       0.00       0.00      0          0          0          0          0          0          0          0          0          0
  dualfix          :       0.00       0.00      4          0          0          0          0          0          0          0          0          0
  genvbounds       :       0.00       0.00      0          0          0          0          0          0          0          0          0          0
  probing          :       0.06       0.00      1          0          0          0          0          0          0          0          0          0
  pseudoobj        :       0.00       0.00      1          0          0          0          1          0          0          0          0          0
  symmetry         :       0.00       0.00      0          0          0          0          0          0          0          0          0          0
  vbounds          :       0.00       0.00      1          0          0          0          0          0          0          0          0          0
  and              :       0.00       0.00      2          0          0          0          0          0          0          0          0          0
  linear           :       0.00       0.00      2          0          0          0          0          0          0          0          0          0
  logicor          :       0.00       0.00      0          0          0          0          0          0          0          0          0          0
  nonlinear        :       0.08       0.01      5          0          0          0          1          0          0        885          0          0
  benders          :       0.00       0.00      0          0          0          0          0          0          0          0          0          0
  components       :       0.00       0.00      1          0          0          0          0          0          0          0          0          0
  root node        :          -          -      -          0          -          -         49          -          -          -          -          -
Constraints        :     Number  MaxNumber  #Separate #Propagate    #EnfoLP    #EnfoRelax  #EnfoPS    #Check   #ResProp    Cutoffs    DomReds       Cuts    Applied      Conss   Children
  benderslp        :          0          0          0          0      69497          0          0       5124          0          0          0          0          0          0          0
  integral         :          0          0          0          0      69497          0          0       5124          0          1      10319          0          0       4666     133180
  and              :        885        885      76907     432013          7          0          0         28      87539         63    2518128       2373       2016          0          0
  linear           :          1          1         59     431950          7          0          0         26          0          0          0          0          0          0          0
  logicor          :          0+      6913          0     123369          0          0          0          0       1255        602        187          0          0          0          0
  benders          :          0          0          0          0          7          0          0         29          0          0          0          0          0          0          0
  countsols        :          0          0          0          0          7          0          0         29          0          0          0          0          0          0          0
  components       :          0          0          0          0          0          0          0          0          0          0          0          0          0          0          0
Constraint Timings :  TotalTime  SetupTime   Separate  Propagate     EnfoLP     EnfoPS     EnfoRelax   Check    ResProp    SB-Prop
  benderslp        :       0.10       0.00       0.00       0.00       0.10       0.00       0.00       0.00       0.00       0.00
  integral         :      48.59       0.00       0.00       0.00      48.58       0.00       0.00       0.01       0.00       0.00
  and              :      41.17       0.00      24.27      16.19       0.00       0.00       0.00       0.01       0.03       0.67
  linear           :       0.43       0.00       0.01       0.42       0.00       0.00       0.00       0.00       0.00       0.00
  logicor          :      11.11       0.00       0.00      11.04       0.00       0.00       0.00       0.00       0.02       0.05
  benders          :       0.00       0.00       0.00       0.00       0.00       0.00       0.00       0.00       0.00       0.00
  countsols        :       0.00       0.00       0.00       0.00       0.00       0.00       0.00       0.00       0.00       0.00
  components       :       0.16       0.00       0.00       0.14       0.00       0.00       0.00       0.00       0.00       0.02
Propagators        : #Propagate   #ResProp    Cutoffs    DomReds
  dualfix          :          4          0          0          0
  genvbounds       :          0          0          0          0
  nlobbt           :          0          0          0          0
  obbt             :          0          0          0          0
  probing          :          0          0          0          0
  pseudoobj        :     372571          0          0         51
  redcost          :     169591          0          0     389836
  rootredcost      :         16          0          0          0
  symmetry         :          0          0          0          0
  vbounds          :      26277          0          0          0
Propagator Timings :  TotalTime  SetupTime   Presolve  Propagate    ResProp    SB-Prop
  dualfix          :       0.00       0.00       0.00       0.00       0.00       0.00
  genvbounds       :       0.26       0.00       0.00       0.26       0.00       0.00
  nlobbt           :       0.00       0.00       0.00       0.00       0.00       0.00
  obbt             :       0.00       0.00       0.00       0.00       0.00       0.00
  probing          :       0.06       0.00       0.06       0.00       0.00       0.00
  pseudoobj        :       0.61       0.00       0.00       0.59       0.00       0.02
  redcost          :       5.88       0.00       0.00       5.87       0.00       0.01
  rootredcost      :       0.32       0.00       0.00       0.31       0.00       0.01
  symmetry         :       0.25       0.00       0.00       0.25       0.00       0.00
  vbounds          :       0.33       0.00       0.00       0.31       0.00       0.02
Conflict Analysis  :       Time      Calls    Success    DomReds  Conflicts   Literals    Reconvs ReconvLits   Dualrays   Nonzeros   LP Iters   (pool size: [10000,10000])
  propagation      :       0.00        665        366          -        423       24.6          0        0.0          -          -          -
  infeasible LP    :       0.00          0          0          -          0        0.0          0        0.0          0        0.0          0
  bound exceed. LP :      12.13       9786       7186          -      42959       31.0          7       22.9          0        0.0      48049
  strong branching :       0.00          0          0          -          0        0.0          0        0.0          -          -          0
  pseudo solution  :       0.00          0          0          -          0        0.0          0        0.0          -          -          -
  applied globally :       0.16          -          -          0      16593       31.3          -          -          0          -          -
  applied locally  :          -          -          -          0          0        0.0          -          -          0          -          -
Separators         :   ExecTime  SetupTime      Calls  RootCalls    Cutoffs    DomReds  FoundCuts ViaPoolAdd  DirectAdd    Applied ViaPoolApp  DirectApp      Conss
  cut pool         :       2.42          -      14347         83          -          -      21049     482647          -          -          -          -          -    (maximal pool size:       1247)
  aggregation      :      22.70       0.00       4772         59          0          0         39       1506          0        415        415          0          0
  > cmir           :          -          -          -          -          -          -          -       1506          0        415        415          0          -
  > flowcover      :          -          -          -          -          -          -          -          0          0          0          0          0          -
  > knapsackcover  :          -          -          -          -          -          -          -          0          0          0          0          0          -
  cgmip            :       0.00       0.00          0          0          0          0          0          0          0          0          0          0          0
  clique           :       0.00       0.00         59         59          0          0          0          0          0          0          0          0          0
  closecuts        :       0.00       0.00          0          0          0          0          0          0          0          0          0          0          0
  convexproj       :       0.00       0.00          0          0          0          0          0          0          0          0          0          0          0
  disjunctive      :       0.00       0.00          0          0          0          0          0          0          0          0          0          0          0
  eccuts           :       0.00       0.00          0          0          0          0          0          0          0          0          0          0          0
  gauge            :       0.00       0.00          0          0          0          0          0          0          0          0          0          0          0
  gomory           :       0.00       0.00          0          0          0          0          0          0          0          0          0          0          0
  > gomorymi       :          -          -          -          -          -          -          -          0          0          0          0          0          -
  > strongcg       :          -          -          -          -          -          -          -          0          0          0          0          0          -
  impliedbounds    :       0.15       0.00       4772         59          0          0          3          0          0          0          0          0          0
  interlattice     :       0.05       0.00         30         30          0          0         30          0         30         29          0         29          0
  interminor       :       0.00       0.00          0          0          0          0          0          0          0          0          0          0          0
  intersub         :       0.00       0.00          0          0          0          0          0          0          0          0          0          0          0
  intobj           :       0.00       0.00          0          0          0          0          0          0          0          0          0          0          0
  mcf              :       0.00       0.00          1          1          0          0          0          0          0          0          0          0          0
  minor            :       0.01       0.00          0          0          0          0          0          0          0          0          0          0          0
  mixing           :       0.00       0.00       4772         59          0          0          0          0          0          0          0          0          0
  oddcycle         :       0.00       0.00          0          0          0          0          0          0          0          0          0          0          0
  rapidlearning    :       0.02       0.00          0          0          0          0          0          0          0          0          0          0          0
  rlt              :       0.00       0.00         10         10          0          0          0          0          0          0          0          0          0
  zerohalf         :      27.33       0.00       3797         20          0          0      21007     481141          0      64731      64731          0          0
Cutselectors       :   ExecTime  SetupTime      Calls  RootCalls   Selected     Forced   Filtered  RootSelec   RootForc   RootFilt 
  hybrid           :       0.28       0.00       9186         57      67191          0     417859        197          0         28
Pricers            :   ExecTime  SetupTime      Calls       Vars
  problem variables:       0.00          -          0          0
Branching Rules    :   ExecTime  SetupTime   BranchLP  BranchExt   BranchPS    Cutoffs    DomReds       Cuts      Conss   Children
  allfullstrong    :       0.00       0.00          0          0          0          0          0          0          0          0
  cloud            :       0.00       0.00          0          0          0          0          0          0          0          0
  distribution     :       0.00       0.00          0          0          0          0          0          0          0          0
  fullstrong       :       0.00       0.00          0          0          0          0          0          0          0          0
  inference        :       0.00       0.00          0          0          0          0          0          0          0          0
  leastinf         :       0.00       0.00          0          0          0          0          0          0          0          0
  lookahead        :       0.00       0.00          0          0          0          0          0          0          0          0
  mostinf          :       0.00       0.00          0          0          0          0          0          0          0          0
  multaggr         :       0.00       0.00          0          0          0          0          0          0          0          0
  nodereopt        :       0.00       0.00          0          0          0          0          0          0          0          0
  pscost           :       0.00       0.00          0          0          0          0          0          0          0          0
  random           :       0.00       0.00          0          0          0          0          0          0          0          0
  relpscost        :      48.42       0.00      69490          0          0          1      10319          0       4680     133180
  vanillafullstrong:       0.00       0.00          0          0          0          0          0          0          0          0
Primal Heuristics  :   ExecTime  SetupTime      Calls      Found       Best
  LP solutions     :       0.02          -          -          7          7
  relax solutions  :       0.00          -          -          0          0
  pseudo solutions :       0.00          -          -          0          0
  strong branching :       0.01          -          -          2          2
  actconsdiving    :       0.00       0.00          0          0          0
  adaptivediving   :       8.94       0.00        364          1          1
  alns             :       1.72       0.00         23          3          3
  bound            :       0.00       0.00          0          0          0
  clique           :       0.00       0.00          1          0          0
  coefdiving       :       0.00       0.00          0          0          0
  completesol      :       0.00       0.00          0          0          0
  conflictdiving   :       5.07       0.00        230          0          0
  crossover        :       0.07       0.00          2          1          1
  dins             :       0.00       0.00          0          0          0
  distributiondivin:      14.44       0.00        231          0          0
  dps              :       0.00       0.00          0          0          0
  dualval          :       0.00       0.00          0          0          0
  farkasdiving     :       0.00       0.00          0          0          0
  feaspump         :       0.00       0.00          0          0          0
  fixandinfer      :       0.00       0.00          0          0          0
  fracdiving       :       7.26       0.00        231          0          0
  gins             :       0.01       0.00          0          0          0
  guideddiving     :       7.24       0.00        231          1          1
  indicator        :       0.12       0.00          0          0          0
  indicatordiving  :       0.00       0.00          0          0          0
  intdiving        :       0.00       0.00          0          0          0
  intshifting      :       0.03       0.00         19          0          0
  linesearchdiving :       6.34       0.00        231          0          0
  localbranching   :       0.00       0.00          0          0          0
  locks            :       0.01       0.00          1          0          0
  lpface           :       0.07       0.00          0          0          0
  mpec             :       0.93       0.00          1          0          0
  multistart       :       0.00       0.00          0          0          0
  mutation         :       0.00       0.00          0          0          0
  nlpdiving        :       4.57       0.00         10          1          1
  objpscostdiving  :       8.90       0.00         29          2          0
  octane           :       0.00       0.00          0          0          0
  ofins            :       0.09       0.00          0          0          0
  oneopt           :       0.08       0.00         24          0          0
  padm             :       0.00       0.00          0          0          0
  proximity        :       0.00       0.00          0          0          0
  pscostdiving     :       7.83       0.00        231          1          1
  randrounding     :       0.27       0.00       5091          0          0
  rens             :       0.00       0.00          0          0          0
  reoptsols        :       0.00       0.00          0          0          0
  repair           :       0.00       0.00          0          0          0
  rins             :       3.04       0.00         11          0          0
  rootsoldiving    :       6.44       0.00         23          1          0
  rounding         :       0.57       0.00       3883          0          0
  shiftandpropagate:       0.00       0.00          0          0          0
  shifting         :      16.38       0.00       8167         10          6
  simplerounding   :       0.04       0.00          0          0          0
  subnlp           :      64.84       0.00          0          0          0
  trivial          :       0.00       0.00          2          2          2
  trivialnegation  :       0.00       0.00          0          0          0
  trustregion      :       0.00       0.00          0          0          0
  trysol           :       0.14       0.00          0          0          0
  twoopt           :       0.00       0.00          0          0          0
  undercover       :       0.63       0.00          1          1          1
  vbounds          :       0.00       0.00          0          0          0
  veclendiving     :       3.72       0.00        231          0          0
  zeroobj          :       0.00       0.00          0          0          0
  zirounding       :       0.14       0.00       1000          0          0
  other solutions  :          -          -          -          0          -
Diving (single)    :      Calls      Nodes   LP Iters Backtracks  Conflicts   MinDepth   MaxDepth   AvgDepth  RoundSols  NLeafSols  MinSolDpt  MaxSolDpt  AvgSolDpt
  actconsdiving    :          0          -          -          -          -          -          -          -          -          -          -          -          -
  coefdiving       :          0          -          -          -          -          -          -          -          -          -          -          -          -
  conflictdiving   :        230       4028      48867        234       3733         19         43       31.2          0          -          -          -          -
  distributiondivin:        231       2787      94094        382       3188         20         35       25.0          0          -          -          -          -
  farkasdiving     :          0          -          -          -          -          -          -          -          -          -          -          -          -
  fracdiving       :        231      23914      71045        186       1378         23        262      117.2          0          -          -          -          -
  guideddiving     :        231      22349      73835        158       1337         29        237      110.4          0          1         58         58       58.0
  indicatordiving  :          0          -          -          -          -          -          -          -          -          -          -          -          -
  linesearchdiving :        231       5239      65421        292       4730         23         50       35.8          0          -          -          -          -
  pscostdiving     :        231       4058      86321        240       3728         23         41       31.0          0          1         41         41       41.0
  veclendiving     :        231       4301      31500        232       4407         17         43       32.0          0          -          -          -          -
Diving (adaptive)  :      Calls      Nodes   LP Iters Backtracks  Conflicts   MinDepth   MaxDepth   AvgDepth  RoundSols  NLeafSols  MinSolDpt  MaxSolDpt  AvgSolDpt
  actconsdiving    :         42        523      16079         73        601         20         31       24.7          0          1         29         29       29.0
  coefdiving       :         95       1669      11140         98       1684         21         43       30.9          0          -          -          -          -
  conflictdiving   :          0          -          -          -          -          -          -          -          -          -          -          -          -
  distributiondivin:          0          -          -          -          -          -          -          -          -          -          -          -          -
  farkasdiving     :          0          -          -          -          -          -          -          -          -          -          -          -          -
  fracdiving       :         18       2283       4715         13         95         89        158      141.1          0          -          -          -          -
  guideddiving     :         28       2345       8642         19        217         33        159       97.6          0          -          -          -          -
  indicatordiving  :          0          -          -          -          -          -          -          -          -          -          -          -          -
  linesearchdiving :         48       1063      10160         56        780         26         44       36.0          0          -          -          -          -
  pscostdiving     :         52        826      17897         53        869         23         36       29.6          0          -          -          -          -
  veclendiving     :         81       1463       6077         82       1160         27         39       32.1          0          -          -          -          -
Neighborhoods      :      Calls  SetupTime  SolveTime SolveNodes       Sols       Best       Exp3  EpsGreedy        UCB TgtFixRate  Opt  Inf Node Stal  Sol  Usr Othr Actv
  rens             :          2       0.05       0.01          1          0          0    0.00000   -1.00000    0.54908      0.550    0    2    0    0    0    0    0    1
  rins             :          2       0.03       0.00          0          0          0    0.00000   -1.00000    0.30042      0.700    0    1    0    0    0    0    1    1
  mutation         :          5       0.15       0.29        122          2          2    0.00000   -1.00000    0.49810      0.585    1    2    0    2    0    0    0    1
  localbranching   :          3       0.10       0.11         69          0          0    0.00000   -1.00000    0.45063      0.662    0    2    0    1    0    0    0    1
  crossover        :          2       0.07       0.01          1          0          0    0.00000   -1.00000    0.54908      0.550    0    2    0    0    0    0    0    1
  proximity        :          3       0.10       0.20         66          0          0    0.00000   -1.00000    0.45874      0.662    0    2    0    1    0    0    0    1
  zeroobjective    :          4       0.17       0.30        111          1          1    0.00000   -1.00000    0.50688      0.522    1    2    0    1    0    0    0    1
  dins             :          2       0.01       0.00          0          0          0    0.00000   -1.00000    0.30042      0.700    0    1    0    0    0    0    1    1
  trustregion      :          0       0.00       0.00          0          0          0    0.00000   -1.00000    1.00000      0.900    0    0    0    0    0    0    0    0
Expressions        :   #IntEval  IntEvalTi   #RevProp  RevPropTi    DomReds    Cutoffs  #Estimate  EstimTime  Branching  #Simplify SimplifyTi Simplified
  pow              :          0       0.00          0       0.00          0          0          0       0.00          0          0       0.00          0
  prod             :       3540       0.00          0       0.00          0          0          0       0.00          0       2655       0.00          0
  sum              :          8       0.00          2       0.00          0          0          0       0.00          0          3       0.00          2
  var              :       3327       0.03          0       0.00          0          0          0       0.00          0       6378       0.00          0
  varidx           :          0       0.00          0       0.00          0          0          0       0.00          0          0       0.00          0
LP                 :       Time      Calls Iterations  Iter/call   Iter/sec  Time-0-It Calls-0-It    ItLimit
  primal LP        :     163.47      13307          0       0.00       0.00     163.41      13307
  dual LP          :    2998.51     163745   22224209     156.18    7411.75       6.03      21444
  lex dual LP      :       0.00          0          0       0.00          -
  barrier LP       :       0.00          0          0       0.00          -       0.00          0
  resolve instable :       0.00          0          0       0.00          -
  diving/probing LP:      56.96       5727     678584     118.49   11913.34
  strong branching :      28.71       5020     354197      70.56   12337.06          -          -         90
    (at root node) :          -         19       3093     162.79          -
  conflict analysis:       5.95       4831      48049       9.95    8075.46
NLP relaxation     :
  solve time       :       4.08 (11 calls)
  convexity        :  nonconvex (1 linear rows, 0 convex ineq., 0 nonconvex ineq., 885 nonlinear eq. or two-sided ineq.)
NLP Solvers        :  #Problems  ProblemTi    #Solves  SolveTime      #Iter  Time/Iter      #Okay #TimeLimit #IterLimit #LObjLimit #Interrupt  #NumError #EvalError  #OutOfMem #LicenseEr #OtherTerm   #GlobOpt    #LocOpt  #Feasible #LocInfeas #GlobInfea #Unbounded   #Unknown
  ipopt            :          2       4.25         14       5.05        423       0.01         14          0          0          0          0          0          0          0          0          0          0          1          1          3          0          0          9
B&B Tree           :
  number of runs   :          1
  nodes            :     130401 (66590 internal, 63811 leaves)
  feasible leaves  :          7
  infeas. leaves   :        186
  objective leaves :      63617
  nodes (total)    :     130401 (66590 internal, 63811 leaves)
  nodes left       :       2752
  max depth        :         31
  max depth (total):         31
  backtracks       :      33497 (25.7%)
  early backtracks :          0 (0.0%)
  nodes exc. ref.  :          0 (0.0%)
  delayed cutoffs  :          3
  repropagations   :       4242 (392 domain reductions, 0 cutoffs)
  avg switch length:       4.33
  switching time   :     186.50
Estim. Tree Size   :     263816
Estimation Tree    : 133181 nodes (130429 visited, 66590 internal, 63839 leaves, 2752 open), weight: 0.4698 completed 0.6719
Estimations        :      estim      value      trend resolution     smooth
  wbe              :     271754          -          -          -          -
  tree-profile     :         -1          -          -          -          -
  gap              :     453043    0.93297    0.00003         64     460713
  tree-weight      :     263817    0.46983    0.00050         64     262072
  leaf-frequency   :     325397    0.48945    0.00001         64     310528
  ssg              :     210756    0.21116   -0.00033         64     211304
  open-nodes       :     256299 2752.00000   -2.73736         64     249393
Root Node          :
  First LP value   : -1.00000000000000e+00
  First LP Iters   :        610 (30500.00 Iter/sec)
  First LP Time    :       0.02
  Final Dual Bound : -9.02401129943504e-01
  Final Root Iters :       1609
  Root LP Estimate : -5.54314295858982e-01
Solution           :
  Solutions found  :         33 (26 improvements)
  First Solution   : +1.00000000000000e+05   (in run 1, after 0 nodes, 0.03 seconds, depth 0, found by <trivial>)
  Gap First Sol.   :   infinite
  Gap Last Sol.    :      19.83 %
  Primal Bound     : -6.04519774011300e-01   (in run 1, after 34889 nodes, 723.57 seconds, depth 22, found by <relaxation>)
  Dual Bound       : -6.47954625706215e-01
  Gap              :       7.19 %
Integrals          :      Total       Avg%
  primal-dual      :   43601.12      12.11
  primal-ref       :          -          - (not evaluated)
  dual-ref         :          -          - (not evaluated)
